\ Model TokenExchangeMaximizeDiversity
\ LP format - for model browsing. Use MPS format to capture full model detail.
Maximize
  x1 + x2
Subject To
 value_conservation: 2.579454224546183 x0 - 4.295117870939943 x1
   - 4.495509532741478 x2 = 0
Bounds
 x0 >= 1
Generals
 x0 x1 x2
End
